NAME : a280.tsp
TYPE : TOUR
DIMENSION : 280
TOUR_LENGTH : 2985.0701678575165
TOUR_SECTION
1
2
280
3
279
278
4
277
276
9
275
274
273
272
271
16
261
260
262
263
264
265
140
266
267
268
135
269
270
134
133
18
19
132
131
20
130
129
21
128
127
126
124
123
122
121
120
154
155
153
156
152
178
150
136
137
138
139
141
142
147
148
149
179
180
181
182
183
184
185
186
193
198
199
145
146
143
144
200
204
205
206
208
207
212
211
210
209
252
253
254
257
258
259
256
255
251
250
249
248
247
246
245
244
243
242
241
240
239
238
237
236
235
234
233
232
231
230
229
228
227
214
215
226
225
224
223
222
221
220
219
218
217
216
213
203
202
201
196
195
197
194
192
191
190
189
188
187
165
164
163
162
161
176
177
151
119
157
158
159
160
175
174
173
107
105
106
172
171
166
167
168
170
169
101
100
99
102
103
104
108
110
111
112
87
86
116
113
114
115
117
118
61
60
43
42
41
46
45
44
59
62
63
64
66
65
85
84
83
88
89
109
90
91
92
93
98
97
96
95
94
80
81
82
79
78
77
75
76
74
73
72
71
70
67
69
68
58
57
56
55
54
47
53
48
49
52
51
50
37
38
39
40
35
36
34
33
32
31
30
125
29
28
27
26
22
25
23
24
17
14
15
13
12
11
10
8
7
6
5
-1
